0 6 6 6 6 6 6 6 6 6 6 6 6 6 6 
6 0 5 3 3 9 3 5 12 2 6 8 12 3 5 
6 5 0 5 5 5 5 5 5 5 5 5 5 5 5 
6 3 5 0 6 8 7 4 5 4 10 15 10 5 4 
6 3 5 6 0 11 7 6 6 9 10 19 6 6 6 
6 9 5 8 11 0 2 3 12 4 10 12 10 10 11 
6 3 5 7 7 2 0 5 7 13 10 13 7 7 7 
6 5 5 4 6 3 5 0 7 11 10 14 13 6 10 
6 12 5 5 6 12 7 7 0 13 10 18 5 5 5 
6 2 5 4 9 4 13 11 13 0 10 3 10 4 11 
6 6 5 10 10 10 10 10 10 10 0 10 10 10 10 
6 8 5 15 19 12 13 14 18 3 10 0 20 15 18 
6 12 5 10 6 10 7 13 5 10 10 20 0 10 10 
6 3 5 5 6 10 7 6 5 4 10 15 10 0 10 
6 5 5 4 6 11 7 10 5 11 10 18 10 10 0 